02_FORMAL/smt/RIINA/Domains/VerifiedIdentity.smt2
; Copyright (c) 2026 The RIINA Authors. All rights reserved.
; Copyright (c) 2026 The RIINA Authors.
; Auto-generated from 02_FORMAL/coq/domains/VerifiedIdentity.v (40 assertions)
; Generated by scripts/generate-full-stack.py
; Module: VerifiedIdentity

(set-logic ALL)
(set-option :produce-models true)

; Credential (matches Coq: Inductive Credential)
(declare-datatypes ((Credential 0)) (((CredPassword) (CredToken) (CredFIDO2) (CredCertificate))))

; AuthResult (matches Coq: Inductive AuthResult)
(declare-datatypes ((AuthResult 0)) (((AuthSuccess) (AuthFailure))))

; Factor (matches Coq: Inductive Factor)
(declare-datatypes ((Factor 0)) (((FactorPassword) (FactorTOTP) (FactorFIDO2) (FactorBiometric))))

; Principal (matches Coq: Record Principal)
(declare-datatypes ((Principal 0))
  (((mk-principal (principal_id PrincipalId) (principal_name string)))))

; Argon2Params (matches Coq: Record Argon2Params)
(declare-datatypes ((Argon2Params 0))
  (((mk-argon2_params (memory_cost Int) (time_cost Int) (parallelism Int) (output_len Int)))))

; Pepper (matches Coq: Record Pepper)
(declare-datatypes ((Pepper 0))
  (((mk-pepper (pepper_value list) (pepper_hsm_id Int) (pepper_bound Bool)))))

; TokenClaims (matches Coq: Record TokenClaims)
(declare-datatypes ((TokenClaims 0))
  (((mk-token_claims (claim_sub PrincipalId) (claim_iat Timestamp) (claim_exp Timestamp) (claim_jti Int)))))

; ChannelBinding (matches Coq: Record ChannelBinding)
(declare-datatypes ((ChannelBinding 0))
  (((mk-channel_binding (binding_tls_exporter list)))))

; BoundToken (matches Coq: Record BoundToken)
(declare-datatypes ((BoundToken 0))
  (((mk-bound_token (token_claims TokenClaims) (token_binding ChannelBinding) (token_signature list)))))

; Session (matches Coq: Record Session)
(declare-datatypes ((Session 0))
  (((mk-session (session_id Int) (session_principal PrincipalId) (session_created Timestamp) (session_expires Timestamp) (session_binding ChannelBinding)))))

; FIDO2Credential (matches Coq: Record FIDO2Credential)
(declare-datatypes ((FIDO2Credential 0))
  (((mk-fido2_credential (fido2_id list) (fido2_public_key list) (fido2_counter Int) (fido2_origin string) (fido2_user_verification Bool)))))

; FIDO2Assertion (matches Coq: Record FIDO2Assertion)
(declare-datatypes ((FIDO2Assertion 0))
  (((mk-fido2_assertion (assertion_auth_data list) (assertion_client_data list) (assertion_signature list) (assertion_counter Int) (assertion_origin string) (assertion_user_verified Bool)))))

; AuthLog (matches Coq: Record AuthLog)
(declare-datatypes ((AuthLog 0))
  (((mk-auth_log (log_principal PrincipalId) (log_timestamp Timestamp) (log_success Bool) (log_ip list)))))

; RateLimitState (matches Coq: Record RateLimitState)
(declare-datatypes ((RateLimitState 0))
  (((mk-rate_limit_state (rate_attempts Int) (rate_window_start Timestamp) (rate_max_attempts Int) (rate_window_size Timestamp)))))

; Adversary (matches Coq: Record Adversary)
(declare-datatypes ((Adversary 0))
  (((mk-adversary (adv_known_keys list) (adv_compromised_channels list)))))

; MFAConfig (matches Coq: Record MFAConfig)
(declare-datatypes ((MFAConfig 0))
  (((mk-mfa_config (mfa_factors list) (mfa_required Int)))))

; SECURE_MEMORY_COST (matches Coq: Definition SECURE_MEMORY_COST)
(define-fun SECURE_MEMORY_COST () Int 100)

; SECURE_TIME_COST (matches Coq: Definition SECURE_TIME_COST)
(define-fun SECURE_TIME_COST () Int 3)

; SECURE_PARALLELISM (matches Coq: Definition SECURE_PARALLELISM)
(define-fun SECURE_PARALLELISM () Int 4)

; SECURE_OUTPUT_LEN (matches Coq: Definition SECURE_OUTPUT_LEN)
(define-fun SECURE_OUTPUT_LEN () Int 32)

; secure_params (matches Coq: Definition secure_params)
(define-fun secure_params () Argon2Params true)

; params_secure (matches Coq: Definition params_secure)
(define-fun params_secure ((p Argon2Params)) Bool
  Nat)

; hash_deterministic_prop (matches Coq: Definition hash_deterministic_prop)
(define-fun hash_deterministic_prop () Prop true)

; hash_collision_resistant (matches Coq: Definition hash_collision_resistant)
(define-fun hash_collision_resistant ((params Argon2Params)) Prop
  true)

; empty_used_set (matches Coq: Definition empty_used_set)
(define-fun empty_used_set () TokenUsedSet true)

; mark_used (matches Coq: Definition mark_used)
(define-fun mark_used ((s TokenUsedSet) (jti Int)) TokenUsedSet
  true)

; is_used (matches Coq: Definition is_used)
(define-fun is_used ((s TokenUsedSet) (jti Int)) Bool
  true)

; verify_token_binding (matches Coq: Definition verify_token_binding)
(define-fun verify_token_binding ((token BoundToken) (binding ChannelBinding)) Bool
  true)

; verify_token_expiry (matches Coq: Definition verify_token_expiry)
(define-fun verify_token_expiry ((token BoundToken) (now Timestamp)) Bool
  Nat)

; verify_token_not_replayed (matches Coq: Definition verify_token_not_replayed)
(define-fun verify_token_not_replayed ((token BoundToken) (used TokenUsedSet)) Bool
  true)

; verify_token (matches Coq: Definition verify_token)
(define-fun verify_token ((token BoundToken) (binding ChannelBinding) (now Timestamp) (used TokenUsedSet)) Bool
  true)

; empty_revoked (matches Coq: Definition empty_revoked)
(define-fun empty_revoked () RevokedSet true)

; revoke_token (matches Coq: Definition revoke_token)
(define-fun revoke_token ((r RevokedSet) (jti Int)) RevokedSet
  true)

; is_revoked (matches Coq: Definition is_revoked)
(define-fun is_revoked ((r RevokedSet) (jti Int)) Bool
  true)

; empty_session_store (matches Coq: Definition empty_session_store)
(define-fun empty_session_store () SessionStore true)

; add_session (matches Coq: Definition add_session)
(define-fun add_session ((store SessionStore) (s Session)) SessionStore
  true)

; session_valid (matches Coq: Definition session_valid)
(define-fun session_valid ((s Session) (binding ChannelBinding) (now Timestamp)) Bool
  Nat)

; session_regenerated (matches Coq: Definition session_regenerated)
(define-fun session_regenerated () Prop true)

; fido2_origin_matches (matches Coq: Definition fido2_origin_matches)
(define-fun fido2_origin_matches ((cred FIDO2Credential) (assertion FIDO2Assertion)) Bool
  String)

; fido2_counter_valid (matches Coq: Definition fido2_counter_valid)
(define-fun fido2_counter_valid ((cred FIDO2Credential) (assertion FIDO2Assertion)) Bool
  Nat)

; fido2_user_verified (matches Coq: Definition fido2_user_verified)
(define-fun fido2_user_verified ((cred FIDO2Credential) (assertion FIDO2Assertion)) Bool
  true)

; verify_fido2 (matches Coq: Definition verify_fido2)
(define-fun verify_fido2 ((cred FIDO2Credential) (assertion FIDO2Assertion)) Bool
  true)

; valid_credential (matches Coq: Definition valid_credential)
(define-fun valid_credential ((store CredentialStore) (p Principal) (c Credential)) Prop
  true)

; credential_matches (matches Coq: Definition credential_matches)
(define-fun credential_matches () Bool true)

; authenticate (matches Coq: Definition authenticate)
(define-fun authenticate ((store CredentialStore) (p Principal) (c Credential)) AuthResult
  true)

; log_auth_attempt (matches Coq: Definition log_auth_attempt)
(define-fun log_auth_attempt ((logs AuthLogStore) (pid PrincipalId) (ts Timestamp) (success Bool)) AuthLogStore
  true)

; rate_limit_check (matches Coq: Definition rate_limit_check)
(define-fun rate_limit_check ((state RateLimitState) (now Timestamp)) Bool
  true)

; rate_limit_update (matches Coq: Definition rate_limit_update)
(define-fun rate_limit_update ((state RateLimitState) (now Timestamp)) RateLimitState
  true)

; has_key (matches Coq: Definition has_key)
(define-fun has_key ((adv Adversary)) Prop
  true)

; factor_strength (matches Coq: Definition factor_strength)
(define-fun factor_strength ((f Factor)) Int
  true)

; factor_secure (matches Coq: Definition factor_secure)
(define-fun factor_secure ((f Factor)) Bool
  Nat)

; mfa_combine (matches Coq: Definition mfa_combine)
(define-fun mfa_combine () MFAConfig true)

; mfa_strength (matches Coq: Definition mfa_strength)
(define-fun mfa_strength ((config MFAConfig)) Int
  true)

; mfa_secure (matches Coq: Definition mfa_secure)
(define-fun mfa_secure ((config MFAConfig)) Bool
  Nat)

; password_in_breach (matches Coq: Definition password_in_breach)
(define-fun password_in_breach ((db BreachDB)) Bool
  true)

; list_eq_refl (matches Coq: Lemma list_eq_refl)
(assert (= true true)) ; list_eq_refl [untranslatable]

; list_eq_sym (matches Coq: Lemma list_eq_sym)
(assert (= true true)) ; list_eq_sym [untranslatable]

; list_eq_sound (matches Coq: Lemma list_eq_sound)
(assert (= true true)) ; list_eq_sound [untranslatable]

; constant_time_eq_correct (matches Coq: Lemma constant_time_eq_correct)
(assert (= true true)) ; constant_time_eq_correct [untranslatable]

; existsb_exists (matches Coq: Lemma existsb_exists)
(assert (= true true)) ; existsb_exists [untranslatable]

; existsb_not_exists (matches Coq: Lemma existsb_not_exists)
(assert (= true true)) ; existsb_not_exists [untranslatable]

; credential_matches_refl (matches Coq: Lemma credential_matches_refl)
(assert (= true true)) ; credential_matches_refl [untranslatable]

; credential_matches_eq (matches Coq: Lemma credential_matches_eq)
(assert (= true true)) ; credential_matches_eq [untranslatable]

; AA_001_01_auth_completeness (matches Coq: Theorem AA_001_01_auth_completeness)
(assert (= true true)) ; AA_001_01_auth_completeness [untranslatable]

; AA_001_02_auth_soundness (matches Coq: Theorem AA_001_02_auth_soundness)
(assert (= true true)) ; AA_001_02_auth_soundness [untranslatable]

; AA_001_03_auth_deterministic (matches Coq: Theorem AA_001_03_auth_deterministic)
(assert (= true true)) ; AA_001_03_auth_deterministic [untranslatable]

; AA_001_04_credential_unforgeability (matches Coq: Theorem AA_001_04_credential_unforgeability)
(assert (= true true)) ; AA_001_04_credential_unforgeability [untranslatable]

; AA_001_05_no_auth_bypass (matches Coq: Theorem AA_001_05_no_auth_bypass)
(assert (= true true)) ; AA_001_05_no_auth_bypass [untranslatable]

; AA_001_06_auth_timing_safe (matches Coq: Theorem AA_001_06_auth_timing_safe)
(assert (= true true)) ; AA_001_06_auth_timing_safe [untranslatable]

; AA_001_07_auth_rate_limited (matches Coq: Theorem AA_001_07_auth_rate_limited)
(assert (= true true)) ; AA_001_07_auth_rate_limited [untranslatable]

; AA_001_08_auth_logging (matches Coq: Theorem AA_001_08_auth_logging)
(assert (= true true)) ; AA_001_08_auth_logging [untranslatable]

; AA_001_09_password_hash_secure (matches Coq: Theorem AA_001_09_password_hash_secure)
(assert (= (params_secure secure_params) true)) ; AA_001_09_password_hash_secure

; AA_001_10_password_preimage_resistant (matches Coq: Theorem AA_001_10_password_preimage_resistant)
(assert (= true true)) ; AA_001_10_password_preimage_resistant [untranslatable]

; AA_001_11_password_not_stored (matches Coq: Theorem AA_001_11_password_not_stored)
(assert (= true true)) ; AA_001_11_password_not_stored [untranslatable]

; AA_001_12_password_pepper_bound (matches Coq: Theorem AA_001_12_password_pepper_bound)
(assert (= true true)) ; AA_001_12_password_pepper_bound [untranslatable]

; AA_001_13_password_constant_time_compare (matches Coq: Theorem AA_001_13_password_constant_time_compare)
(assert (= true true)) ; AA_001_13_password_constant_time_compare [untranslatable]

; AA_001_14_password_breach_checked (matches Coq: Theorem AA_001_14_password_breach_checked)
(assert (= true true)) ; AA_001_14_password_breach_checked [untranslatable]

; AA_001_15_token_unforgeability (matches Coq: Theorem AA_001_15_token_unforgeability)
(assert (= true true)) ; AA_001_15_token_unforgeability [untranslatable]

; AA_001_16_token_channel_bound (matches Coq: Theorem AA_001_16_token_channel_bound)
(assert (= true true)) ; AA_001_16_token_channel_bound [untranslatable]

; AA_001_17_token_expiry (matches Coq: Theorem AA_001_17_token_expiry)
(assert (= true true)) ; AA_001_17_token_expiry [untranslatable]

; AA_001_18_token_replay_prevented (matches Coq: Theorem AA_001_18_token_replay_prevented)
(assert (= true true)) ; AA_001_18_token_replay_prevented [untranslatable]

; AA_001_19_token_revocation (matches Coq: Theorem AA_001_19_token_revocation)
(assert (= true true)) ; AA_001_19_token_revocation [untranslatable]

; AA_001_20_token_refresh_secure (matches Coq: Theorem AA_001_20_token_refresh_secure)
(assert (= true true)) ; AA_001_20_token_refresh_secure [untranslatable]

; AA_001_21_token_claims_integrity (matches Coq: Theorem AA_001_21_token_claims_integrity)
(assert (= true true)) ; AA_001_21_token_claims_integrity [untranslatable]

; AA_001_22_token_binding_verified (matches Coq: Theorem AA_001_22_token_binding_verified)
(assert (= true true)) ; AA_001_22_token_binding_verified [untranslatable]

; AA_001_23_session_isolation (matches Coq: Theorem AA_001_23_session_isolation)
(assert (= true true)) ; AA_001_23_session_isolation [untranslatable]

; AA_001_24_session_binding (matches Coq: Theorem AA_001_24_session_binding)
(assert (= true true)) ; AA_001_24_session_binding [untranslatable]

; AA_001_25_session_expiry (matches Coq: Theorem AA_001_25_session_expiry)
(assert (= true true)) ; AA_001_25_session_expiry [untranslatable]

; AA_001_26_session_no_fixation (matches Coq: Theorem AA_001_26_session_no_fixation)
(assert (= true true)) ; AA_001_26_session_no_fixation [untranslatable]

; AA_001_27_session_regeneration (matches Coq: Theorem AA_001_27_session_regeneration)
(assert (= true true)) ; AA_001_27_session_regeneration [untranslatable]

; AA_001_28_fido2_phishing_resistant (matches Coq: Theorem AA_001_28_fido2_phishing_resistant)
(assert (= true true)) ; AA_001_28_fido2_phishing_resistant [untranslatable]

; AA_001_29_fido2_origin_bound (matches Coq: Theorem AA_001_29_fido2_origin_bound)
(assert (= true true)) ; AA_001_29_fido2_origin_bound [untranslatable]

; AA_001_30_fido2_replay_prevented (matches Coq: Theorem AA_001_30_fido2_replay_prevented)
(assert (= true true)) ; AA_001_30_fido2_replay_prevented [untranslatable]

; AA_001_31_fido2_user_verification (matches Coq: Theorem AA_001_31_fido2_user_verification)
(assert (= true true)) ; AA_001_31_fido2_user_verification [untranslatable]

; AA_001_32_mfa_composition (matches Coq: Theorem AA_001_32_mfa_composition)
(assert (= true true)) ; AA_001_32_mfa_composition [untranslatable]

; Verify all assertions are satisfiable
(check-sat)
(exit)
